letting n_nurses=25
letting n_days=7
letting n_shift_types=4
letting max_covers=16
letting t_covers=87
letting covers=[3,14,0,0,3,16,0,0,2,12,0,0,8,0,2,0,3,0,0,0,1,0,5,0,2,15,1,0]
letting prefes=[4,1,4,3,4,2,1,3,2,1,1,3,4,1,4,3,4,2,1,3,4,1,4,3,4,1,4,3,4,1,4,3,1,2,1,3,2,1,1,3,4,1,4,3,1,2,1,3,4,1,4,3,4,1,4,3,1,4,4,2,4,3,1,2,1,2,1,4,1,4,4,2,4,3,1,2,1,4,4,2,1,4,4,2,4,1,4,3,1,1,2,3,2,1,1,3,4,1,4,3,1,1,2,3,4,1,4,3,4,1,4,3,4,1,4,2,4,1,2,3,2,1,4,3,4,1,4,2,4,1,2,3,4,1,4,2,4,1,4,2,4,1,4,2,4,1,1,3,2,1,1,4,4,1,4,2,4,1,1,3,4,1,4,2,4,1,4,2,1,4,4,2,4,1,1,3,2,1,1,3,1,4,4,2,4,1,1,3,1,4,4,2,1,4,4,2,4,1,4,2,4,1,1,3,2,1,1,3,4,1,4,2,4,1,1,3,4,1,4,2,4,1,4,2,1,4,4,2,4,1,2,3,2,1,4,3,1,4,4,2,4,1,2,3,1,4,4,2,1,4,4,2,4,1,4,3,4,1,1,3,2,1,1,3,4,1,4,3,4,1,1,3,4,1,4,3,4,1,4,3,4,1,4,2,1,2,1,3,2,1,1,3,4,1,4,2,1,2,1,3,4,1,4,2,4,1,4,2,4,1,4,2,4,1,1,3,2,1,1,3,4,1,4,2,4,1,1,3,4,1,4,2,4,1,4,2,4,1,4,2,4,1,1,2,1,2,4,3,4,1,4,2,4,1,1,2,4,1,4,2,4,1,4,2,4,1,4,2,1,1,1,3,2,1,4,3,4,1,4,2,1,1,1,3,4,1,4,2,4,1,4,2,4,1,1,2,4,1,1,3,2,1,1,3,4,1,1,2,4,1,1,3,4,1,1,2,4,1,1,2,4,1,1,2,4,1,1,2,1,2,1,3,4,1,1,2,4,1,1,2,4,1,1,2,4,1,1,2,4,1,1,2,4,1,1,2,2,1,1,3,4,1,1,2,4,1,1,2,4,1,1,2,4,1,1,2,4,4,1,2,4,1,2,3,2,1,1,3,4,4,1,2,4,1,2,3,4,4,1,2,4,4,1,2,4,1,4,3,4,2,1,3,1,2,4,3,4,1,4,3,4,2,1,3,4,1,4,3,4,1,4,3,4,1,4,2,1,1,2,3,2,1,1,4,4,1,4,2,1,1,2,3,4,1,4,2,4,1,4,2,1,4,4,2,4,1,1,3,1,2,1,4,1,4,4,2,4,1,1,3,1,4,4,2,1,4,4,2,4,1,4,2,4,1,1,3,2,1,1,3,4,1,4,2,4,1,1,3,4,1,4,2,4,1,4,2,4,1,4,2,4,1,1,2,2,1,1,4,4,1,4,2,4,1,1,2,4,1,4,2,4,1,4,2,1,1,4,2,4,1,1,3,2,1,1,3,1,1,4,2,4,1,1,3,1,1,4,2,1,1,4,2,4,1,1,2,4,1,1,3,2,1,1,3,4,1,1,2,4,1,1,3,4,1,1,2,4,1,1,2]
letting ub =  244
